\ Model qp
\ LP format - for model browsing. Use MPS format to capture full model detail.
Maximize
  IS0 + IS1 + IS2
Subject To
 Predicate-C-0.1: IS0 <= 0
 Predicate-C-1.1: IS1 <= 0
 Predicate-C-2.1: IS2 <= -0.1693420346332349
Bounds
 IS0 free
 IS1 free
 IS2 free
End
